
Gurobi 11.0.3 (mac64[x86]) logging started Fri Apr 11 15:21:28 2025

Set parameter LogFile to value "Results/Conservative_experiment/sanity_check_v42_none.log"
Set parameter TimeLimit to value 84600
Set parameter Method to value 2
Set parameter Crossover to value 0
Set parameter BarHomogeneous to value 1
Set parameter BarConvTol to value 1e-10
Gurobi Optimizer version 11.0.3 build v11.0.3rc0 (mac64[x86] - Darwin 23.4.0 23E214)

CPU model: Intel(R) Core(TM) i7-1060NG7 CPU @ 1.20GHz
Thread count: 4 physical cores, 8 logical processors, using up to 8 threads

Optimize a model with 1494624 rows, 1917920 columns and 7072112 nonzeros
Model fingerprint: 0xe57817c9
Coefficient statistics:
  Matrix range     [2e-01, 1e+00]
  Objective range  [6e-05, 5e+00]
  Bounds range     [0e+00, 0e+00]
  RHS range        [2e+00, 3e+03]
Presolve removed 1212936 rows and 1395160 columns (presolve time = 5s) ...
Presolve removed 1212936 rows and 1395160 columns
Presolve time: 5.38s
Presolved: 281688 rows, 522760 columns, 1861872 nonzeros
Ordering time: 0.04s

Barrier statistics:
 AA' NZ     : 3.081e+04
 Factor NZ  : 1.986e+05 (roughly 8 MB of memory)
 Factor Ops : 1.518e+07 (less than 1 second per iteration)
 Threads    : 4

                  Objective                Residual
Iter       Primal          Dual         Primal    Dual     Compl     Time
   0   8.30991001e+05  4.83404199e+09  2.15e+03 6.97e+03  5.45e+06     6s
   1  -1.09965205e+06  1.66451955e+09  1.03e+03 3.90e+03  1.17e+06     6s
   2  -1.54087821e+06  2.47746146e+08  1.30e+02 4.43e+02  1.43e+05     6s
   3  -1.38731831e+06  4.09861190e+07  4.89e+00 1.07e+01  6.38e+03     6s
   4  -6.02060555e+05  5.96754657e+06  2.35e-01 1.59e+00  6.89e+02     6s
   5  -1.78233989e+05  4.23089575e+05  1.15e-02 1.51e-01  5.70e+01     6s
   6  -1.06736694e+04  2.08414416e+04  4.91e-04 8.49e-03  2.85e+00     6s
   7   1.54710610e+03  6.18705786e+03  6.01e-05 1.28e-03  4.10e-01     6s
   8   2.66796216e+03  5.09839257e+03  2.69e-05 6.79e-04  2.11e-01     6s
   9   2.95541325e+03  4.15140171e+03  1.68e-05 2.62e-04  9.90e-02     6s
  10   3.29143350e+03  3.91039532e+03  6.45e-06 1.60e-04  5.00e-02     6s
  11   3.45051026e+03  3.71652787e+03  2.56e-06 5.80e-05  2.08e-02     6s
  12   3.57701083e+03  3.63081192e+03  3.68e-07 5.23e-07  4.02e-03     6s
  13   3.59891401e+03  3.61061751e+03  7.70e-08 8.20e-15  8.43e-04     6s
  14   3.60339329e+03  3.60709324e+03  2.60e-08 1.72e-14  2.64e-04     6s
  15   3.60542037e+03  3.60611030e+03  3.80e-09 2.95e-07  4.91e-05     6s
  16   3.60575157e+03  3.60585067e+03  2.82e-10 1.13e-08  7.05e-06     6s
  17   3.60578237e+03  3.60578256e+03  7.58e-11 1.08e-14  1.36e-08     6s
  18   3.60578250e+03  3.60578250e+03  1.95e-11 4.73e-12  4.14e-11     6s
  19   3.60578250e+03  3.60578250e+03  2.09e-10 4.73e-12  2.29e-13     6s

Barrier solved model in 19 iterations and 5.83 seconds (3.60 work units)
Optimal objective 3.60578250e+03

